data;

param n := 6;
param m := 5;

param c (tr):
  1 2 3 4 5 :=
1	290 115 355 715 810
2	380 340 165 380 610
3	505 530 285 220 450
4	655 450 155 240 315
5	1010 840 550 305 95
6	1072 1097 747 372 333
;

param s:= 1 10
          2 12
          3 20
          4 24
          5 18
          6 40;


param d:= 1 220
          2 15
          3 25
          4 33
          5 21;
